units           		metal
atom_style      		atomic
boundary        		p p p


lattice 	        	fcc 3.529

read_data               fourball

#-------- Simulation Parameters

pair_style      		eam
pair_coeff      		* * Ni_u3.eam
minimize	            0 0 5000 5000

neighbor       	    	2.0 bin
neigh_modify    		every 10 delay 0 check yes

velocity 		    	all create 300.0 4928459 dist gaussian


timestep 			    0.001
fix 				    1 all nve
thermo 			        1000
thermo_style 			custom time pe ke density etotal press temp
run 				    30000
write_restart 			restart_NVEs.equil

unfix 1

reset_timestep 0

fix 				    1 all npt temp 300 300.0 $(100.0*dt) iso 1 0 $(1000.0*dt)
thermo 			        1000
thermo_style 			custom time pe ke density etotal press temp
dump 				    myDump2 all atom 1000 dump.lammpstrj

run 				    100000
write_restart 			restart_NPTs.equil
