units           metal
atom_style      atomic
boundary        p p p

read_restart 	restart_NPTs.equil


#--------------------Initialization

pair_style      eam
pair_coeff      * * Ni_u3.eam

 
reset_timestep  0


fix		1 all nve
fix 		2 all ttm/mod 342785 TTM.init 100 1 1 infile ingridd.txt outfile 500 T_out 



compute 	tpr all temp/profile 1 1 1 x 100 out bin
fix 		avr all ave/time 2 5 500 c_tpr[2] mode vector file ave_tmp.txt
compute 	ke all ke/atom

timestep 	0.001
thermo 	1000


dump		myDump all custom 100 dump.stry id type x y z c_ke

restart	20000 restart.ttm

run 		20000
write_restart   sim.state1
